0001 28
0002 12
0003 20
0004 30
0005 34
0006 27
0007 9
0008 34
0009 19
0010 3
0011 15
0012 21
0013 12
0014 35
0015 1
0016 12
0017 24
0018 30
0019 11
0020 35
0021 11
0022 13
0023 9
0024 29
0025 27
0026 34
0027 34
0028 35
0029 14
0030 11
0031 5
0032 32
0033 16
0034 3
0035 34
0036 35
0037 27
0038 25
0039 27
0040 3
0041 35
0042 35
0043 32
0044 34
0045 31
0046 35
0047 33
0048 34
0049 6
0050 24
0051 29
0052 35
0053 30
0054 25
0055 18
0056 34
0057 31
0058 33
0059 16
0060 7
0061 16
0062 32
0063 35
0064 7
0065 13
0066 32
0067 3
0068 16
0069 16
0070 35
0071 18
0072 31
0073 13
0074 24
0075 34
0076 14
0077 30
0078 32
0079 32
0080 27
0081 35
0082 2
0083 13
0084 34
0085 22
0086 33
0087 27
0088 34
0089 34
0090 31
0091 35
0092 25
0093 7
0094 2
0095 16
0096 30
0097 27
0098 4
0099 4
0100 2
0101 26
0102 33
0103 15
0104 30
0105 33
0106 19
0107 25
0108 7
0109 28
0110 24
0111 22
0112 32
0113 18
0114 31
0115 25
0116 13
0117 33
0118 27
0119 20
0120 34
0121 17
0122 21
0123 4
0124 29
0125 6
0126 11
0127 28
0128 31
0129 30
0130 10
0131 18
0132 17
0133 22
0134 14
0135 17
0136 23
0137 18
0138 26
0139 12
0140 28
0141 30
0142 27
0143 17
0144 30
0145 33
0146 32
0147 32
0148 18
0149 4
0150 30
0151 27
0152 31
0153 25
0154 23
0155 16
0156 22
0157 13
0158 34
0159 7
0160 35
0161 32
0162 11
0163 30
0164 33
0165 31
0166 9
0167 16
0168 35
0169 26
0170 32
0171 17
0172 13
0173 27
0174 28
0175 35
0176 33
0177 2
0178 31
0179 30
0180 29
0181 18
0182 17
0183 15
0184 35
0185 7
0186 34
0187 22
0188 24
0189 33
0190 34
0191 11
0192 6
0193 31
0194 29
0195 5
0196 6
0197 28
0198 34
0199 13
0200 24
0201 20
0202 30
0203 33
0204 28
0205 29
0206 23
0207 18
0208 13
0209 25
0210 31
0211 30
0212 17
0213 32
0214 12
0215 11
0216 12
0217 22
0218 35
0219 7
0220 35
0221 5
0222 33
0223 32
0224 30
0225 35
0226 34
0227 34
0228 32
0229 27
0230 6
0231 12
0232 19
0233 25
0234 16
0235 35
0236 32
0237 15
0238 27
0239 23
0240 11
0241 27
0242 27
0243 31
0244 6
0245 33
0246 18
0247 7
0248 27
0249 27
0250 24
0251 23
0252 26
0253 17
0254 34
0255 15
0256 32
0257 6
0258 16
0259 6
0260 30
0261 25
0262 32
0263 5
0264 34
0265 18
0266 34
0267 33
0268 25
0269 27
0270 35
0271 25
0272 2
0273 27
0274 32
0275 17
0276 11
0277 35
0278 16
0279 24
0280 34
0281 30
0282 28
0283 28
0284 8
0285 12
0286 22
0287 27
0288 29
0289 28
0290 26
0291 33
0292 13
0293 35
0294 32
0295 25
0296 11
0297 24
0298 35
0299 33
0300 34
0301 33
0302 6
0303 30
0304 2
0305 34
0306 5
0307 28
0308 24
0309 25
0310 2
0311 31
0312 17
0313 16
0314 34
0315 30
0316 22
0317 29
0318 34
0319 11
0320 35
0321 16
0322 30
0323 35
0324 34
0325 13
0326 34
0327 33
0328 17
0329 27
0330 33
0331 19
0332 28
0333 30
0334 23
0335 35
0336 28
0337 35
0338 31
0339 31
0340 12
0341 33
0342 34
0343 19
0344 25
0345 10
0346 33
0347 27
0348 18
0349 16
0350 33
0351 30
0352 12
0353 12
0354 12
0355 23
0356 6
0357 11
0358 24
0359 8
0360 20
0361 11
0362 28
0363 31
0364 25
0365 25
0366 33
0367 22
0368 32
0369 29
0370 19
0371 13
0372 18
0373 32
0374 28
0375 35
0376 12
0377 32
0378 22
0379 35
0380 13
0381 22
0382 2
0383 34
0384 30
0385 26
0386 32
0387 18
0388 32
0389 31
0390 10
0391 22
0392 6
0393 34
0394 30
0395 7
0396 16
0397 35
0398 12
0399 11
0400 34
0401 33
0402 2
0403 24
0404 29
0405 24
0406 12
0407 18
0408 33
0409 32
0410 18
0411 31
0412 12
0413 35
0414 31
0415 27
0416 34
0417 24
0418 31
0419 6
0420 32
0421 33
0422 35
0423 32
0424 12
0425 16
0426 34
0427 30
0428 17
0429 31
0430 35
0431 11
0432 29
0433 11
0434 29
0435 26
0436 23
0437 22
0438 24
0439 28
0440 19
0441 19
0442 25
0443 28
0444 35
0445 6
0446 2
0447 15
0448 32
0449 17
0450 7
0451 19
0452 26
0453 22
0454 7
0455 34
0456 35
0457 6
0458 30
0459 35
0460 11
0461 33
0462 18
0463 32
0464 22
0465 33
0466 2
0467 27
0468 27
0469 12
0470 32
0471 33
0472 30
0473 11
0474 34
0475 31
0476 33
0477 2
0478 19
0479 30
0480 23
0481 11
0482 1
0483 16
0484 6
0485 21
0486 22
0487 11
0488 29
0489 10
0490 25
0491 33
0492 12
0493 23
0494 32
0495 28
0496 34
0497 35
0498 17
0499 24
0500 31
0501 2
0502 22
0503 12
0504 6
0505 35
0506 34
0507 13
0508 35
0509 26
0510 11
0511 11
0512 34
0513 25
0514 25
0515 2
0516 6
0517 29
0518 24
0519 22
0520 33
0521 12
0522 31
0523 34
0524 25
0525 35
0526 13
0527 30
0528 22
0529 28
0530 18
0531 34
0532 33
0533 11
0534 4
0535 21
0536 16
0537 27
0538 34
0539 30
0540 34
0541 33
0542 17
0543 11
0544 35
0545 17
0546 11
0547 34
0548 28
0549 32
0550 28
0551 33
0552 31
0553 35
0554 34
0555 31
0556 35
0557 27
0558 35
0559 35
0560 34
0561 32
0562 34
0563 35
0564 5
0565 35
0566 2
0567 33
0568 34
0569 31
0570 35
0571 16
0572 28
0573 16
0574 8
0575 31
0576 28
0577 32
0578 10
0579 17
0580 28
0581 32
0582 24
0583 33
0584 30
0585 34
0586 32
0587 34
0588 10
0589 25
0590 34
0591 16
0592 32
0593 35
0594 13
0595 13
0596 35
0597 2
0598 28
0599 13
0600 27
0601 26
0602 31
0603 28
0604 12
0605 35
0606 30
0607 32
0608 18
0609 2
0610 31
0611 32
0612 34
0613 12
0614 2
0615 35
0616 31
0617 28
0618 13
0619 13
0620 16
0621 10
0622 33
